
;this file is automatically generated: Mon Nov 02 10:43:04 CST 2020

;declarations generated

(declare-fun oclExcludes ( Int Int) Bool)
(declare-fun Cardinality ( Int) Int)
(declare-fun type_eaa68818_35fc_4eaa_bb96_6efc465a1123_Class8 ( Int) Bool)
(declare-fun type_eaa68818_35fc_4eaa_bb96_6efc465a1123_Class9 ( Int) Bool)
(declare-fun type_eaa68818_35fc_4eaa_bb96_6efc465a1123_Class6 ( Int) Bool)
(declare-fun type_eaa68818_35fc_4eaa_bb96_6efc465a1123_Class7 ( Int) Bool)
(declare-fun type_eaa68818_35fc_4eaa_bb96_6efc465a1123_Class0 ( Int) Bool)
(declare-fun type_eaa68818_35fc_4eaa_bb96_6efc465a1123_Class1 ( Int) Bool)
(declare-fun type_eaa68818_35fc_4eaa_bb96_6efc465a1123_Class4 ( Int) Bool)
(declare-fun type_eaa68818_35fc_4eaa_bb96_6efc465a1123_Class5 ( Int) Bool)
(declare-fun type_eaa68818_35fc_4eaa_bb96_6efc465a1123_Class2 ( Int) Bool)
(declare-fun type_eaa68818_35fc_4eaa_bb96_6efc465a1123_Class3 ( Int) Bool)
(declare-fun type_eaa68818_35fc_4eaa_bb96_6efc465a1123_Class16 ( Int) Bool)
(declare-fun type_eaa68818_35fc_4eaa_bb96_6efc465a1123_Class15 ( Int) Bool)
(declare-fun type_eaa68818_35fc_4eaa_bb96_6efc465a1123_Class14 ( Int) Bool)
(declare-fun type_eaa68818_35fc_4eaa_bb96_6efc465a1123_Class13 ( Int) Bool)
(declare-fun type_eaa68818_35fc_4eaa_bb96_6efc465a1123_Class17 ( Int) Bool)
(declare-fun type_eaa68818_35fc_4eaa_bb96_6efc465a1123_Class12 ( Int) Bool)
(declare-fun type_eaa68818_35fc_4eaa_bb96_6efc465a1123_Class11 ( Int) Bool)
(declare-fun type_eaa68818_35fc_4eaa_bb96_6efc465a1123_Class10 ( Int) Bool)
(declare-fun oclSelect ( Int Bool) Int)
(declare-fun Enum0 ( Int) Int)
(declare-fun Enum1 ( Int) Int)
(declare-fun Enum2 ( Int) Int)
(declare-fun obj_bc91c61b_0c61_417d_8896_ee50f6def780 ( Int) Int)
(declare-fun container_ ( Int) Int)
(declare-fun oclIncludes ( Int Int) Bool)
(declare-fun ObjAt ( Int Int) Int)

;formula(s) generated
(assert (forall ((p Int)) (=> ( type_eaa68818_35fc_4eaa_bb96_6efc465a1123_Class16 p )  (and (>= ( Enum1 ( obj_bc91c61b_0c61_417d_8896_ee50f6def780 p )  )  0) (<= ( Enum1 ( obj_bc91c61b_0c61_417d_8896_ee50f6def780 p )  )  5)))))
(assert (! (forall ((v Int)) (=> (and ( type_eaa68818_35fc_4eaa_bb96_6efc465a1123_Class16 v )  ( type_eaa68818_35fc_4eaa_bb96_6efc465a1123_Class14 v ) ) (not (= ( Enum1 ( obj_bc91c61b_0c61_417d_8896_ee50f6def780 v )  )  2) ))):named l0))
(assert (! (exists ((o Int)) ( type_eaa68818_35fc_4eaa_bb96_6efc465a1123_Class0 ( obj_bc91c61b_0c61_417d_8896_ee50f6def780 o )  ) ):named c0))
(assert (! (exists ((o Int)) ( type_eaa68818_35fc_4eaa_bb96_6efc465a1123_Class1 ( obj_bc91c61b_0c61_417d_8896_ee50f6def780 o )  ) ):named c1))
(assert (! (exists ((o Int)) (and (and ( type_eaa68818_35fc_4eaa_bb96_6efc465a1123_Class10 ( obj_bc91c61b_0c61_417d_8896_ee50f6def780 o )  )  ( type_eaa68818_35fc_4eaa_bb96_6efc465a1123_Class14 ( obj_bc91c61b_0c61_417d_8896_ee50f6def780 o )  ) ) ( type_eaa68818_35fc_4eaa_bb96_6efc465a1123_Class16 ( obj_bc91c61b_0c61_417d_8896_ee50f6def780 o )  ) )):named c2))
(assert (! (exists ((o Int)) ( type_eaa68818_35fc_4eaa_bb96_6efc465a1123_Class11 ( obj_bc91c61b_0c61_417d_8896_ee50f6def780 o )  ) ):named c3))
(assert (! (exists ((o Int)) ( type_eaa68818_35fc_4eaa_bb96_6efc465a1123_Class12 ( obj_bc91c61b_0c61_417d_8896_ee50f6def780 o )  ) ):named c4))
(assert (! (exists ((o Int)) ( type_eaa68818_35fc_4eaa_bb96_6efc465a1123_Class13 ( obj_bc91c61b_0c61_417d_8896_ee50f6def780 o )  ) ):named c5))
(assert (! (exists ((o Int)) ( type_eaa68818_35fc_4eaa_bb96_6efc465a1123_Class14 ( obj_bc91c61b_0c61_417d_8896_ee50f6def780 o )  ) ):named c6))
(assert (! (exists ((o Int)) ( type_eaa68818_35fc_4eaa_bb96_6efc465a1123_Class15 ( obj_bc91c61b_0c61_417d_8896_ee50f6def780 o )  ) ):named c7))
(assert (! (exists ((o Int)) (and ( type_eaa68818_35fc_4eaa_bb96_6efc465a1123_Class16 ( obj_bc91c61b_0c61_417d_8896_ee50f6def780 o )  )  ( type_eaa68818_35fc_4eaa_bb96_6efc465a1123_Class14 ( obj_bc91c61b_0c61_417d_8896_ee50f6def780 o )  ) )):named c8))
(assert (! (exists ((o Int)) ( type_eaa68818_35fc_4eaa_bb96_6efc465a1123_Class17 ( obj_bc91c61b_0c61_417d_8896_ee50f6def780 o )  ) ):named c9))
(assert (! (exists ((o Int)) ( type_eaa68818_35fc_4eaa_bb96_6efc465a1123_Class2 ( obj_bc91c61b_0c61_417d_8896_ee50f6def780 o )  ) ):named c10))
(assert (! (exists ((o Int)) ( type_eaa68818_35fc_4eaa_bb96_6efc465a1123_Class3 ( obj_bc91c61b_0c61_417d_8896_ee50f6def780 o )  ) ):named c11))
(assert (! (exists ((o Int)) ( type_eaa68818_35fc_4eaa_bb96_6efc465a1123_Class4 ( obj_bc91c61b_0c61_417d_8896_ee50f6def780 o )  ) ):named c12))
(assert (! (exists ((o Int)) ( type_eaa68818_35fc_4eaa_bb96_6efc465a1123_Class5 ( obj_bc91c61b_0c61_417d_8896_ee50f6def780 o )  ) ):named c13))
(assert (! (exists ((o Int)) ( type_eaa68818_35fc_4eaa_bb96_6efc465a1123_Class6 ( obj_bc91c61b_0c61_417d_8896_ee50f6def780 o )  ) ):named c14))
(assert (! (exists ((o Int)) ( type_eaa68818_35fc_4eaa_bb96_6efc465a1123_Class7 ( obj_bc91c61b_0c61_417d_8896_ee50f6def780 o )  ) ):named c15))
(assert (! (exists ((o Int)) ( type_eaa68818_35fc_4eaa_bb96_6efc465a1123_Class8 ( obj_bc91c61b_0c61_417d_8896_ee50f6def780 o )  ) ):named c16))
(assert (! (exists ((o Int)) ( type_eaa68818_35fc_4eaa_bb96_6efc465a1123_Class9 ( obj_bc91c61b_0c61_417d_8896_ee50f6def780 o )  ) ):named c17))

 ;end of formula 